100
27 87
9 35
4 40
6 21
5 11
6 38
28 96
11 82
6 93
0 52
14 88
10 93
1 50
22 49
19 29
28 33
0 16
18 77
11 46
8 77
25 6
24 64
28 43
28 75
19 25
15 28
13 26
26 65
26 24
25 50
4 35
24 74
23 4
1 12
29 54
12 9
15 4
9 66
3 24
11 88
28 73
19 18
13 42
18 27
18 49
25 24
0 14
10 89
23 53
20 21
12 43
9 72
1 60
4 99
19 84
19 37
25 59
21 60
0 90
9 72
8 70
24 76
7 98
1 6
8 71
16 11
16 62
2 65
6 27
13 58
27 55
5 25
25 2
22 68
12 77
27 84
12 40
28 83
10 30
13 90
21 70
14 19
16 37
16 7
7 53
10 32
17 65
19 27
18 94
22 64
20 40
21 71
17 12
14 19
11 97
29 47
18 15
24 55
14 55
20 21
